0 0 0 0
0 1 0 0
0 2 2 0
0 3 2 0
0 4 0 3
0 5 1 9
0 6 2 13
0 7 2 23
0 8 1 7
0 9 2 5
0 10 2 12
0 11 2 13
0 12 0 22
0 13 1 17
0 14 2 17
0 15 0 21
0 16 2 27
0 17 2 22
0 18 0 31
0 19 1 34
0 20 2 13
0 21 2 26
0 22 2 3
0 23 2 31
0 24 0 37
0 25 2 13
0 26 2 30
0 27 2 35
0 28 2 26
0 29 1 43
0 30 2 41
0 31 0 48
